! Solving for graph ../../../benchmarks/linear/Q-494_bus.mtx.rnd
! Target value is set to 275
 ! --------------------------------------------------- CP Optimizer 22.2.0.0 --
 ! Minimization problem - 495 variables, 1080 constraints, 1 phase
 ! TimeLimit            = 1800
 ! LogVerbosity         = Terse
 ! Initial process time : 0.01s (0.01s extraction + 0.00s propagation)
 !  . Log search space  : 4589.4 (before), 4589.4 (after)
 !  . Memory usage      : 723.5 kB (before), 723.5 kB (after)
 ! Using parallel search with 8 workers.
 ! ----------------------------------------------------------------------------
 !          Best Branches  Non-fixed    W       Branch decision
                        0        495                 -
 + New bound is 1
                        0        495    1   F        -
 + New bound is 276
                        2        494    1   F     1 != _int57
 + New bound is 277
 *           551      486  0.17s        1      (gap is 49.73%)
             551    11466        495    7   F        -
 + New bound is 484 (gap is 12.16%)
             551    15406        495    1            -
 + New bound is 551 (gap is 0.00%)
 ! ----------------------------------------------------------------------------
 ! Search completed, 1 solution found.
 ! Best objective         : 551 (optimal - effective tol. is 0)
 ! Best bound             : 551
 ! ----------------------------------------------------------------------------
 ! Number of branches     : 233489
 ! Number of fails        : 117823
 ! Total memory usage     : 49.9 MB (49.5 MB CP Optimizer + 0.4 MB Concert)
 ! Time spent in solve    : 1.81s (1.80s engine + 0.01s extraction)
 ! Search speed (br. / s) : 130440.8
 ! ----------------------------------------------------------------------------
! --------------------------------------------------------
! Best span = 551
! Labeling: 1 1 276 276 1 1 276 1 1 276 276 1 1 276 551 1 1 276 1 276 276 1 1 1 276 1 1 1 1 276 276 1 1 1 276 276 551 276 1 276 1 276 276 1 276 1 1 276 276 276 1 1 1 1 276 276 1 1 276 1 276 276 276 1 276 276 276 1 276 276 276 276 276 276 1 1 1 276 276 1 276 551 1 276 1 1 1 551 551 1 276 276 1 551 276 1 1 276 551 276 276 1 276 1 276 551 276 276 276 276 276 276 276 1 1 276 276 1 1 276 1 1 1 551 276 551 1 1 1 551 1 1 1 551 1 276 1 1 1 276 276 276 1 276 276 276 276 276 276 1 276 276 276 276 276 1 276 276 1 276 276 1 276 276 276 1 276 551 276 276 1 276 276 1 1 276 1 1 1 276 1 1 551 1 1 276 276 276 276 1 1 1 1 1 1 276 276 276 1 276 1 1 1 276 1 1 276 1 276 276 276 551 1 276 551 1 1 1 276 1 276 1 276 276 1 1 276 1 1 551 1 1 1 551 276 276 276 1 276 276 1 276 1 276 1 1 1 1 1 276 276 1 276 1 1 276 1 276 1 276 1 276 551 276 276 276 1 276 276 551 276 276 276 276 551 1 276 276 1 276 276 1 276 276 551 1 1 1 1 276 1 276 551 1 1 1 276 1 276 276 276 1 551 276 1 276 276 276 1 276 551 1 1 1 1 551 1 1 1 1 276 1 276 276 276 1 276 1 276 1 1 276 1 276 1 276 276 1 276 276 1 1 276 1 1 1 1 276 1 1 551 1 1 1 1 276 1 276 1 1 1 276 1 276 1 1 276 1 276 1 1 1 1 276 276 1 1 1 1 1 276 1 1 1 276 276 1 276 1 276 1 1 276 1 551 1 276 551 276 276 276 1 276 276 276 1 276 1 276 1 1 276 1 276 1 276 1 276 1 1 276 1 276 1 276 551 276 276 276 276 276 551 551 551 1 276 1 276 1 1 1 1 1 1 1 276 1 276 1 276 276 276 276 1 1 276 276 551 276 276 1 276 1 1 276 276 1 276 276 551 1 1 1 276 276 551 1 276 276 276 276 276 1 1 1 1 1 1 276 276 276 1 1 276 
! -------------------------------------------------------- 
